# 1.2.1.36_group0_PF00171_30-85~1.2.1.9_group0_PF00171_30-85.sdpA
# All alignment positions within 5\AA of a ligand/cat site passing the sdpA filter.  Column indices start with 0.
149
175
176
207
211
330
381
